Academic license - for non-commercial use only
Optimize a model with 680 rows, 600 columns and 19479 nonzeros
Variable types: 0 continuous, 600 integer (600 binary)
Coefficient statistics:
  Matrix range     [1e+00, 1e+01]
  Objective range  [1e+00, 2e+01]
  Bounds range     [1e+00, 1e+00]
  RHS range        [1e+00, 3e+01]
Found heuristic solution: objective 62
Presolve removed 542 rows and 345 columns
Presolve time: 0.08s
Presolved: 138 rows, 255 columns, 2550 nonzeros
Variable types: 0 continuous, 255 integer (255 binary)

Root relaxation: objective 2.850000e+01, 17 iterations, 0.00 seconds

    Nodes    |    Current Node    |     Objective Bounds      |     Work
 Expl Unexpl |  Obj  Depth IntInf | Incumbent    BestBd   Gap | It/Node Time

     0     0   28.50000    0    2   62.00000   28.50000  54.0%     -    0s
H    0     0                      29.0000000   28.50000  1.72%     -    0s

Explored 1 nodes (20 simplex iterations) in 0.08 seconds
Thread count was 8 (of 8 available processors)

Solution count 2: 29 62 

Optimal solution found (tolerance 1.00e-04)
Best objective 2.900000000000e+01, best bound 2.900000000000e+01, gap 0.0000%

